
  32    4
  10   10   10   10

   0   0   0   0   0   3 2 3 5 
   9   0   1   1   1   1 4 
   8   0   5   2   8   1 4 
   5   1   4   0   7   2 9 6 
   5   6   4   3   0   3 9 8 7 
   3   3   3   0   6   2 8 7 
  10   2   4   0   5   2 11 10 
   7   5   7   3   0   2 11 10 
   4   6   3   0   4   2 11 10 
  10   5   0   3   1   2 13 12 
  10   0   2   3   1   1 12 
   1   2   0   8   4   2 16 14 
   3   0   4   6   4   2 16 14 
   8   5   0   4   2   2 17 15 
   5   3   6   5   0   2 19 18 
   7   0   3   6   4   1 17 
   5   4   6   5   0   2 23 20 
   6   2   0   4   5   2 23 20 
   5   5   6   3   0   2 23 20 
   4   5   0   2   5   1 21 
   9   3   4   0   4   1 22 
   7   8   2   0   5   2 27 24 
   9   4   0   8   3   1 24 
   5   4   5   4   0   3 31 26 25 
   7   4   0   3   1   2 30 29 
  10   3   3   4   0   1 28 
   2   0   5   7   2   1 28 
   9   0   3   1   5   1 32
  10   4   4   8   0   1 32
   8   0   5   1   5   1 32
   1   0   3   2   6   1 32
   0   0   0   0   0   0 
